Normalized Data/p03_4_normalized_split0.vrp
NAME:p03_4_NORMALIZED_split
BEST_KNOWN: 0
COMMENT: 0
DIMENSION: 409
CAPACITY: 100
EDGE_WEIGHT_FORMAT: FUNCTION
EDGE_WEIGHT_TYPE: EXACT_2D
NODE_COORD_SECTION
1 0.00000 0.00000
2 -29 -37
3 -29 -37
4 6 33
5 6 33
6 6 33
7 6 33
8 6 33
9 6 33
10 32 44
11 32 44
12 32 44
13 32 44
14 32 44
15 32 44
16 42 19
17 42 19
18 42 19
19 42 19
20 -48 18
21 -48 18
22 -48 18
23 -48 18
24 -39 37
25 -39 37
26 -39 37
27 -33 41
28 -33 41
29 -33 41
30 -33 41
31 -33 41
32 -33 41
33 -33 41
34 -21 21
35 -40 5
36 -40 5
37 -40 5
38 -40 5
39 -40 5
40 -40 5
41 -7 -11
42 -7 -11
43 -7 -11
44 -7 -11
45 -7 -11
46 -14 -8
47 -14 -8
48 -14 -8
49 -14 -8
50 -14 -8
51 -14 -8
52 -14 -8
53 31 23
54 31 23
55 31 23
56 31 23
57 31 23
58 -32 21
59 -32 21
60 -32 21
61 -32 21
62 -32 21
63 -32 21
64 -10 -6
65 -10 -6
66 -10 -6
67 -10 -6
68 5 -5
69 5 -5
70 5 -5
71 5 -5
72 5 -5
73 -13 19
74 -13 19
75 -13 19
76 19 -21
77 19 -21
78 19 -21
79 19 -21
80 19 -21
81 20 44
82 20 44
83 41 47
84 41 47
85 41 47
86 27 -39
87 27 -39
88 27 -39
89 27 -39
90 27 -39
91 27 -39
92 20 -24
93 20 -24
94 34 4
95 34 4
96 34 4
97 34 4
98 34 4
99 -29 -18
100 -29 -18
101 -29 -18
102 -29 -18
103 1 -18
104 1 -18
105 1 -18
106 18 -13
107 18 -13
108 18 -13
109 -19 -6
110 -19 -6
111 -19 -6
112 -19 -6
113 -44 -20
114 -44 -20
115 -44 -20
116 -44 -20
117 -44 -20
118 -44 -20
119 26 23
120 26 23
121 26 23
122 26 23
123 26 23
124 26 23
125 26 23
126 34 0
127 34 0
128 34 0
129 29 -13
130 29 -13
131 29 -13
132 37 -50
133 37 -50
134 37 -50
135 -43 18
136 -43 18
137 -43 18
138 -43 18
139 1 7
140 1 7
141 1 7
142 -45 37
143 -45 37
144 -45 37
145 -45 37
146 -47 5
147 -47 5
148 36 44
149 36 44
150 36 44
151 36 44
152 36 44
153 -33 -14
154 -33 -14
155 -33 -14
156 -33 -14
157 -33 -14
158 17 -48
159 17 -48
160 17 -48
161 17 -48
162 -45 -29
163 -45 -29
164 13 41
165 13 41
166 13 41
167 29 43
168 29 43
169 -34 -36
170 -34 -36
171 -34 -36
172 14 23
173 14 23
174 14 23
175 14 23
176 14 23
177 14 23
178 -32 -15
179 -32 -15
180 -32 -15
181 -32 -15
182 -32 -15
183 -32 -15
184 0 -6
185 0 -6
186 0 -6
187 0 -43
188 0 -43
189 0 -43
190 0 -43
191 -3 -27
192 -3 -27
193 -3 -27
194 -3 -27
195 -3 -27
196 49 39
197 49 39
198 49 39
199 49 39
200 49 39
201 9 -29
202 9 -29
203 9 -29
204 -45 -8
205 -45 -8
206 12 -42
207 12 -42
208 12 -42
209 12 -42
210 0 -15
211 0 -15
212 0 -15
213 0 -15
214 0 -15
215 0 -15
216 10 43
217 10 43
218 48 12
219 48 12
220 48 12
221 5 12
222 5 12
223 5 12
224 35 -14
225 35 -14
226 35 -14
227 35 -14
228 35 -14
229 35 -14
230 -40 -25
231 -40 -25
232 -41 5
233 -41 5
234 -41 5
235 -41 5
236 34 -18
237 34 -18
238 34 -18
239 34 -18
240 34 -18
241 34 -18
242 26 9
243 26 9
244 26 9
245 26 9
246 26 9
247 26 9
248 26 9
249 -26 38
250 -26 38
251 -26 38
252 -26 38
253 -26 38
254 -26 38
255 -7 25
256 -7 25
257 -50 10
258 -50 10
259 -50 10
260 -45 -50
261 -45 -50
262 -45 -50
263 -45 -50
264 -50 21
265 -50 21
266 -50 21
267 -50 21
268 -25 14
269 -25 14
270 -25 14
271 7 39
272 7 39
273 7 39
274 7 39
275 -22 -7
276 -22 -7
277 2 40
278 2 40
279 2 40
280 24 -44
281 25 3
282 25 3
283 25 3
284 25 3
285 -46 22
286 -46 22
287 -46 22
288 -46 22
289 -46 22
290 -43 -16
291 -43 -16
292 -43 -16
293 -43 -16
294 -43 -16
295 -43 -16
296 -49 48
297 -49 48
298 -49 48
299 -49 48
300 -49 48
301 39 -43
302 39 -43
303 39 -43
304 39 -43
305 30 -28
306 30 -28
307 -23 -47
308 -23 -47
309 -23 -47
310 -23 -47
311 -23 -47
312 -34 -24
313 2 -47
314 2 -47
315 2 -47
316 2 -47
317 -26 11
318 -26 11
319 -26 11
320 -26 11
321 -26 11
322 -26 11
323 12 30
324 12 30
325 12 30
326 12 30
327 12 30
328 -31 -12
329 -31 -12
330 -31 -12
331 -31 -12
332 -31 -12
333 -16 -37
334 -16 -37
335 -16 -37
336 -16 -37
337 -16 -37
338 -16 -37
339 10 -5
340 10 -5
341 10 -5
342 10 -5
343 10 -5
344 10 -5
345 -3 1
346 -3 1
347 -3 1
348 -3 1
349 -21 -30
350 -21 -30
351 -21 -30
352 -21 -30
353 24 0
354 24 0
355 -45 47
356 -45 47
357 -45 47
358 -18 -24
359 -18 -24
360 -18 -24
361 47 -24
362 47 -24
363 47 -24
364 47 -24
365 43 -9
366 43 -9
367 43 -9
368 43 -9
369 43 -9
370 43 -9
371 43 -9
372 31 -33
373 31 -33
374 31 -33
375 -37 -2
376 -37 -2
377 -37 -2
378 -37 -2
379 -37 -2
380 -37 -2
381 12 17
382 12 17
383 19 39
384 19 39
385 19 39
386 19 39
387 19 39
388 19 39
389 -35 36
390 -35 36
391 -35 36
392 -35 36
393 -35 36
394 -35 36
395 -28 44
396 40 33
397 40 33
398 40 33
399 40 33
400 40 33
401 40 33
402 -16 8
403 -16 8
404 -16 8
405 -16 8
406 -16 8
407 -16 8
408 31 10
409 31 10
DEMAND_SECTION
1 0
2 20
3 10
4 20
5 10
6 1
7 1
8 1
9 1
10 20
11 10
12 5
13 1
14 1
15 1
16 10
17 1
18 1
19 1
20 20
21 1
22 1
23 1
24 20
25 1
26 1
27 20
28 10
29 5
30 1
31 1
32 1
33 1
34 20
35 20
36 10
37 1
38 1
39 1
40 1
41 20
42 10
43 5
44 1
45 1
46 20
47 20
48 5
49 1
50 1
51 1
52 1
53 10
54 5
55 1
56 1
57 1
58 20
59 10
60 5
61 1
62 1
63 1
64 20
65 1
66 1
67 1
68 10
69 1
70 1
71 1
72 1
73 20
74 20
75 1
76 10
77 5
78 1
79 1
80 1
81 20
82 5
83 20
84 20
85 5
86 20
87 5
88 1
89 1
90 1
91 1
92 20
93 20
94 20
95 10
96 5
97 1
98 1
99 20
100 10
101 1
102 1
103 20
104 20
105 5
106 20
107 20
108 5
109 20
110 5
111 1
112 1
113 20
114 10
115 1
116 1
117 1
118 1
119 20
120 10
121 5
122 1
123 1
124 1
125 1
126 10
127 1
128 1
129 10
130 5
131 1
132 20
133 10
134 1
135 10
136 1
137 1
138 1
139 20
140 20
141 5
142 10
143 1
144 1
145 1
146 20
147 10
148 20
149 10
150 5
151 1
152 1
153 20
154 20
155 1
156 1
157 1
158 20
159 20
160 1
161 1
162 20
163 10
164 20
165 20
166 5
167 20
168 20
169 20
170 1
171 1
172 20
173 20
174 1
175 1
176 1
177 1
178 20
179 5
180 1
181 1
182 1
183 1
184 20
185 1
186 1
187 20
188 20
189 1
190 1
191 10
192 1
193 1
194 1
195 1
196 20
197 20
198 5
199 1
200 1
201 20
202 1
203 1
204 20
205 1
206 10
207 5
208 1
209 1
210 10
211 5
212 1
213 1
214 1
215 1
216 20
217 1
218 20
219 10
220 1
221 20
222 5
223 1
224 20
225 20
226 1
227 1
228 1
229 1
230 10
231 5
232 20
233 10
234 5
235 1
236 20
237 5
238 1
239 1
240 1
241 1
242 20
243 10
244 5
245 1
246 1
247 1
248 1
249 20
250 20
251 1
252 1
253 1
254 1
255 20
256 10
257 20
258 10
259 5
260 20
261 5
262 1
263 1
264 20
265 20
266 5
267 1
268 20
269 1
270 1
271 20
272 5
273 1
274 1
275 20
276 5
277 20
278 5
279 1
280 20
281 20
282 10
283 1
284 1
285 10
286 1
287 1
288 1
289 1
290 20
291 20
292 5
293 1
294 1
295 1
296 20
297 20
298 1
299 1
300 1
301 20
302 20
303 5
304 1
305 20
306 5
307 20
308 20
309 5
310 1
311 1
312 20
313 20
314 20
315 5
316 1
317 20
318 10
319 1
320 1
321 1
322 1
323 20
324 20
325 1
326 1
327 1
328 10
329 5
330 1
331 1
332 1
333 20
334 20
335 1
336 1
337 1
338 1
339 20
340 10
341 1
342 1
343 1
344 1
345 10
346 1
347 1
348 1
349 10
350 1
351 1
352 1
353 20
354 5
355 20
356 20
357 5
358 20
359 20
360 1
361 10
362 1
363 1
364 1
365 20
366 10
367 5
368 1
369 1
370 1
371 1
372 20
373 5
374 1
375 10
376 5
377 1
378 1
379 1
380 1
381 20
382 1
383 20
384 10
385 1
386 1
387 1
388 1
389 20
390 5
391 1
392 1
393 1
394 1
395 20
396 20
397 10
398 5
399 1
400 1
401 1
402 20
403 5
404 1
405 1
406 1
407 1
408 20
409 10
DEPOT_SECTION
1
-1
EOF