Normalized Data/p03_4_normalized_split0.sol
408 -9 166 167 81 80 383 387 386 385 -12 13 10 14 11 83 84 82 151 147 148 150 149 -16 18 17 15 195 196 199 197 198 397 398 395 396 399 400 121 122 -28 27 26 29 394 248 250 249 251 253 252 -32 30 31 354 356 355 295 296 299 297 298 389 391 393 392 390 -33 268 267 269 317 320 321 318 316 319 403 401 406 405 404 -38 36 37 35 39 34 231 234 232 233 375 274 275 -40 41 44 43 42 104 103 102 212 210 209 -54 53 52 55 56 124 120 118 123 119 326 322 324 325 323 -66 63 64 65 46 47 51 49 48 45 50 110 109 111 108 -67 68 235 238 237 236 239 240 224 225 223 226 227 228 130 128 129 -70 69 71 372 373 131 133 132 303 302 300 301 362 363 361 360 -73 72 74 254 255 140 138 -92 91 76 79 75 78 77 105 106 -95 96 94 93 97 126 125 127 366 370 367 365 368 364 369 -99 100 101 98 180 182 177 181 154 152 156 153 155 -107 304 305 371 86 90 88 87 89 85 279 -114 115 112 116 113 117 294 289 291 290 293 292 329 330 328 327 331 -134 135 136 137 20 21 19 22 265 263 264 266 285 288 287 286 284 -139 5 8 7 6 4 3 270 276 277 278 -168 170 169 2 1 310 308 309 307 306 -179 178 311 229 230 161 162 259 260 262 261 -183 185 184 -191 193 192 194 190 205 206 208 207 157 159 158 160 202 201 200 -211 213 214 189 186 188 187 314 312 315 313 -218 219 217 407 408 244 246 245 242 243 241 247 -222 221 220 176 175 172 174 173 171 380 381 -258 257 256 145 146 204 203 376 378 377 374 379 -271 273 272 216 215 163 165 164 384 382 -283 281 282 280 353 352 338 343 340 339 341 342 -335 333 332 337 336 334 350 349 348 351 359 357 358 -344 347 346 345 -388 23 24 25 144 143 142 141 62 57 60 61 59 58 402 0 





OBJ=
2987.042
BEST_KNOWN=
0.000